Geographic Exponential Decay
40 204 50 68 148 189 87 238 128 117 252 142 316 311 153 112 154 33 307 270 120 86 47 152 34 200 116 173 193 308 40 161 190 213 271 73 59 159 39 257 60
p edge 320 1249
e 0 35 11.0
e 0 248 3.0
e 0 229 1.0
e 0 170 11.0
e 1 217 2.0
e 2 222 5.0
e 2 255 4.0
e 3 74 1.0
e 4 36 4.0
e 4 137 7.0
e 4 130 2.0
e 4 47 4.0
e 5 303 5.0
e 5 64 17.0
e 5 168 36.0
e 5 99 11.0
e 5 133 7.0
e 5 189 77.0
e 5 190 72.0
e 6 182 1.0
e 7 32 2.0
e 8 93 5.0
e 9 291 1.0
e 9 165 10.0
e 10 151 3.0
e 10 206 3.0
e 11 161 12.0
e 12 95 1.0
e 12 11 4.0
e 13 86 37.0
e 14 181 5.0
e 14 217 4.0
e 15 76 1.0
e 16 186 7.0
e 16 297 8.0
e 16 294 11.0
e 16 148 6.0
e 17 196 23.0
e 17 77 13.0
e 17 13 14.0
e 17 197 2.0
e 17 12 5.0
e 17 71 1.0
e 17 160 18.0
e 18 220 30.0
e 18 107 4.0
e 18 226 4.0
e 18 281 50.0
e 18 182 6.0
e 18 185 41.0
e 18 184 16.0
e 18 179 5.0
e 18 130 15.0
e 18 294 23.0
e 18 65 34.0
e 18 181 11.0
e 18 38 25.0
e 18 282 9.0
e 19 267 5.0
e 20 67 2.0
e 21 163 1.0
e 22 141 2.0
e 23 197 13.0
e 23 160 1.0
e 24 236 1.0
e 25 119 5.0
e 25 267 1.0
e 25 82 12.0
e 25 96 4.0
e 26 318 2.0
e 27 275 3.0
e 28 67 1.0
e 29 26 1.0
e 30 141 1.0
e 31 176 1.0
e 31 206 10.0
e 31 16 3.0
e 31 290 11.0
e 33 130 80.0
e 33 77 59.0
e 33 75 38.0
e 33 286 51.0
e 33 116 44.0
e 33 305 38.0
e 33 141 64.0
e 33 185 6.0
e 33 76 50.0
e 33 110 68.0
e 33 287 85.0
e 33 26 63.0
e 33 66 36.0
e 33 162 12.0
e 33 312 46.0
e 33 139 11.0
e 33 68 48.0
e 33 131 32.0
e 33 99 57.0
e 33 9 69.0
e 33 148 67.0
e 33 111 73.0
e 33 82 91.0
e 33 224 74.0
e 33 163 61.0
e 33 169 90.0
e 33 29 31.0
e 34 297 35.0
e 34 285 71.0
e 34 137 58.0
e 34 294 29.0
e 34 20 37.0
e 34 229 25.0
e 34 246 98.0
e 34 315 72.0
e 34 213 21.0
e 34 27 38.0
e 34 150 39.0
e 34 35 97.0
e 34 75 57.0
e 34 293 78.0
e 34 50 78.0
e 34 306 93.0
e 34 192 91.0
e 34 152 40.0
e 34 251 92.0
e 34 252 13.0
e 34 118 79.0
e 34 24 66.0
e 34 270 26.0
e 34 22 76.0
e 34 240 82.0
e 34 278 45.0
e 34 279 64.0
e 37 142 55.0
e 37 123 3.0
e 39 202 41.0
e 39 268 63.0
e 39 264 84.0
e 39 21 52.0
e 39 65 61.0
e 39 80 91.0
e 39 61 25.0
e 39 55 33.0
e 39 50 70.0
e 39 164 81.0
e 39 317 92.0
e 39 167 41.0
e 39 280 70.0
e 39 153 32.0
e 39 273 35.0
e 39 45 39.0
e 39 41 33.0
e 39 131 30.0
e 39 256 59.0
e 39 221 59.0
e 39 84 77.0
e 39 76 15.0
e 39 250 77.0
e 39 274 51.0
e 39 295 38.0
e 39 171 87.0
e 39 213 38.0
e 40 213 30.0
e 40 107 38.0
e 40 13 90.0
e 40 274 81.0
e 40 15 89.0
e 40 296 55.0
e 40 224 1.0
e 40 5 16.0
e 40 138 61.0
e 40 291 44.0
e 40 35 25.0
e 40 225 32.0
e 40 136 92.0
e 40 28 34.0
e 40 221 94.0
e 40 190 23.0
e 40 198 91.0
e 40 63 79.0
e 40 88 24.0
e 40 36 56.0
e 40 37 81.0
e 40 147 57.0
e 40 275 54.0
e 40 222 40.0
e 40 82 59.0
e 40 283 78.0
e 40 141 30.0
e 42 136 12.0
e 42 3 1.0
e 42 238 43.0
e 42 117 89.0
e 43 78 2.0
e 44 155 8.0
e 44 85 12.0
e 44 224 7.0
e 44 263 1.0
e 46 222 1.0
e 47 184 23.0
e 47 266 39.0
e 47 192 57.0
e 47 123 16.0
e 47 185 83.0
e 47 38 41.0
e 47 108 40.0
e 47 287 22.0
e 47 71 82.0
e 47 205 86.0
e 47 44 7.0
e 47 296 57.0
e 47 178 40.0
e 47 227 99.0
e 47 267 63.0
e 47 208 2.0
e 47 156 83.0
e 47 297 56.0
e 47 116 81.0
e 47 283 53.0
e 47 52 2.0
e 47 189 22.0
e 47 295 85.0
e 47 172 90.0
e 47 230 29.0
e 47 9 9.0
e 48 263 23.0
e 48 31 24.0
e 48 159 17.0
e 48 55 1.0
e 48 181 3.0
e 48 155 21.0
e 48 11 1.0
e 49 198 7.0
e 49 300 8.0
e 49 108 1.0
e 49 210 5.0
e 50 122 49.0
e 50 310 17.0
e 50 198 20.0
e 50 147 85.0
e 50 227 36.0
e 50 10 17.0
e 50 17 12.0
e 50 36 22.0
e 50 258 73.0
e 50 82 69.0
e 50 312 71.0
e 50 287 20.0
e 50 203 82.0
e 50 253 74.0
e 50 218 64.0
e 50 186 1.0
e 50 296 52.0
e 50 277 6.0
e 50 45 24.0
e 50 246 70.0
e 50 263 86.0
e 50 83 48.0
e 50 291 9.0
e 50 207 96.0
e 50 84 44.0
e 51 250 2.0
e 51 225 1.0
e 52 80 18.0
e 52 125 23.0
e 52 311 92.0
e 52 128 12.0
e 52 151 14.0
e 52 310 3.0
e 53 77 1.0
e 54 67 3.0
e 56 194 11.0
e 57 309 3.0
e 57 12 3.0
e 58 15 19.0
e 58 200 93.0
e 58 153 93.0
e 58 226 6.0
e 58 85 1.0
e 58 169 19.0
e 58 72 26.0
e 58 99 29.0
e 58 219 15.0
e 58 189 68.0
e 58 180 39.0
e 58 60 42.0
e 58 186 14.0
e 58 61 17.0
e 59 165 57.0
e 59 290 40.0
e 59 19 34.0
e 59 60 46.0
e 59 92 37.0
e 59 304 30.0
e 59 248 60.0
e 59 223 59.0
e 59 128 90.0
e 59 216 45.0
e 59 287 39.0
e 59 7 42.0
e 59 283 57.0
e 59 269 84.0
e 59 40 99.0
e 59 217 44.0
e 59 161 96.0
e 59 52 84.0
e 59 105 49.0
e 59 224 5.0
e 59 159 11.0
e 59 76 8.0
e 59 254 52.0
e 59 275 28.0
e 59 249 98.0
e 59 28 22.0
e 59 246 91.0
e 60 311 2.0
e 60 179 37.0
e 60 99 69.0
e 60 252 30.0
e 60 41 56.0
e 60 241 12.0
e 60 75 89.0
e 60 13 68.0
e 60 78 65.0
e 60 208 40.0
e 60 313 91.0
e 60 287 93.0
e 60 33 75.0
e 60 100 87.0
e 60 138 69.0
e 60 77 53.0
e 60 209 5.0
e 60 160 32.0
e 60 306 2.0
e 60 145 74.0
e 60 243 7.0
e 60 183 48.0
e 60 7 61.0
e 60 316 66.0
e 60 120 7.0
e 62 189 42.0
e 63 236 4.0
e 68 75 65.0
e 68 262 27.0
e 68 263 19.0
e 68 307 15.0
e 68 143 97.0
e 68 111 65.0
e 68 16 2.0
e 68 86 92.0
e 68 309 99.0
e 68 191 75.0
e 68 54 96.0
e 68 27 12.0
e 68 82 4.0
e 68 38 91.0
e 68 17 58.0
e 68 94 10.0
e 68 98 27.0
e 68 133 92.0
e 68 199 79.0
e 68 13 24.0
e 68 105 17.0
e 68 177 12.0
e 68 217 20.0
e 68 190 15.0
e 68 119 83.0
e 68 49 43.0
e 69 89 4.0
e 69 179 1.0
e 70 61 1.0
e 70 193 85.0
e 73 240 45.0
e 73 254 36.0
e 73 301 29.0
e 73 0 6.0
e 73 303 52.0
e 73 96 36.0
e 73 160 30.0
e 73 231 86.0
e 73 74 2.0
e 73 232 3.0
e 73 3 18.0
e 73 180 27.0
e 73 1 52.0
e 73 297 46.0
e 73 91 25.0
e 73 175 25.0
e 73 287 46.0
e 73 295 50.0
e 73 263 43.0
e 73 148 59.0
e 73 5 97.0
e 73 201 82.0
e 73 107 41.0
e 73 154 71.0
e 73 314 61.0
e 73 315 70.0
e 73 140 26.0
e 79 15 2.0
e 81 150 2.0
e 85 291 3.0
e 85 297 10.0
e 86 44 24.0
e 86 136 63.0
e 86 132 93.0
e 86 6 89.0
e 86 60 7.0
e 86 242 80.0
e 86 169 24.0
e 86 56 75.0
e 86 69 88.0
e 86 153 54.0
e 86 294 80.0
e 86 311 69.0
e 86 303 44.0
e 86 57 17.0
e 86 263 8.0
e 86 234 86.0
e 86 314 10.0
e 86 253 4.0
e 86 205 16.0
e 86 239 67.0
e 86 251 24.0
e 86 193 100.0
e 86 280 51.0
e 86 203 70.0
e 86 79 52.0
e 87 72 17.0
e 87 83 35.0
e 87 187 87.0
e 87 259 13.0
e 87 64 35.0
e 87 66 86.0
e 87 194 65.0
e 87 303 60.0
e 87 53 34.0
e 87 147 52.0
e 87 211 23.0
e 87 115 38.0
e 87 253 72.0
e 87 238 3.0
e 87 170 79.0
e 87 30 60.0
e 87 93 97.0
e 87 166 74.0
e 87 65 19.0
e 87 24 10.0
e 87 154 70.0
e 87 276 66.0
e 87 153 77.0
e 87 307 70.0
e 87 256 97.0
e 87 160 28.0
e 87 209 15.0
e 88 65 4.0
e 90 250 2.0
e 91 52 22.0
e 94 162 5.0
e 97 48 17.0
e 101 265 5.0
e 101 183 2.0
e 102 191 4.0
e 102 154 47.0
e 103 214 2.0
e 104 289 6.0
e 104 82 5.0
e 104 236 11.0
e 104 56 5.0
e 106 102 14.0
e 106 12 20.0
e 106 289 16.0
e 106 52 1.0
e 106 195 12.0
e 106 127 13.0
e 106 128 23.0
e 109 110 1.0
e 112 128 80.0
e 112 254 14.0
e 112 297 57.0
e 112 60 60.0
e 112 54 57.0
e 112 161 77.0
e 112 160 98.0
e 112 240 63.0
e 112 23 28.0
e 112 291 20.0
e 112 290 4.0
e 112 205 43.0
e 112 206 19.0
e 112 93 85.0
e 112 267 45.0
e 112 270 100.0
e 112 129 93.0
e 112 193 9.0
e 112 295 56.0
e 112 146 30.0
e 112 33 91.0
e 112 292 42.0
e 112 95 76.0
e 112 225 28.0
e 112 187 46.0
e 112 124 98.0
e 112 13 74.0
e 113 42 5.0
e 114 0 10.0
e 114 130 6.0
e 115 163 1.0
e 116 17 56.0
e 116 118 81.0
e 116 238 80.0
e 116 0 13.0
e 116 171 56.0
e 116 99 35.0
e 116 147 75.0
e 116 85 91.0
e 116 246 51.0
e 116 13 18.0
e 116 14 27.0
e 116 184 38.0
e 116 199 11.0
e 116 205 72.0
e 116 201 32.0
e 116 248 73.0
e 116 128 46.0
e 116 117 2.0
e 116 130 79.0
e 116 236 85.0
e 116 274 65.0
e 116 307 94.0
e 116 208 94.0
e 116 300 76.0
e 116 87 75.0
e 117 96 97.0
e 117 315 67.0
e 117 251 10.0
e 117 24 86.0
e 117 312 92.0
e 117 219 89.0
e 117 188 26.0
e 117 90 39.0
e 117 36 24.0
e 117 248 86.0
e 117 43 78.0
e 117 74 86.0
e 117 66 77.0
e 117 144 5.0
e 117 18 62.0
e 117 249 26.0
e 117 288 93.0
e 117 281 23.0
e 117 228 90.0
e 117 44 80.0
e 117 186 96.0
e 117 280 31.0
e 117 35 20.0
e 117 273 46.0
e 117 69 27.0
e 120 276 83.0
e 120 188 52.0
e 120 280 27.0
e 120 159 100.0
e 120 256 73.0
e 120 59 71.0
e 120 146 17.0
e 120 190 59.0
e 120 16 77.0
e 120 130 84.0
e 120 133 29.0
e 120 43 22.0
e 120 203 94.0
e 120 14 90.0
e 120 271 70.0
e 120 233 25.0
e 120 48 62.0
e 120 225 41.0
e 120 66 20.0
e 120 77 74.0
e 120 191 56.0
e 120 29 96.0
e 120 279 36.0
e 120 201 49.0
e 120 63 53.0
e 120 2 60.0
e 121 8 1.0
e 121 204 75.0
e 122 176 17.0
e 122 265 16.0
e 122 12 4.0
e 122 298 23.0
e 122 11 18.0
e 122 100 10.0
e 125 206 1.0
e 125 152 10.0
e 125 134 15.0
e 125 240 12.0
e 125 38 24.0
e 125 161 29.0
e 126 26 1.0
e 127 165 18.0
e 127 68 47.0
e 127 92 18.0
e 127 215 15.0
e 127 57 9.0
e 127 50 99.0
e 128 69 6.0
e 128 173 20.0
e 128 264 86.0
e 128 214 24.0
e 128 32 59.0
e 128 143 66.0
e 128 299 53.0
e 128 21 66.0
e 128 46 36.0
e 128 27 1.0
e 128 175 5.0
e 128 318 48.0
e 128 53 8.0
e 128 95 71.0
e 128 220 67.0
e 128 63 1.0
e 128 151 36.0
e 128 131 91.0
e 128 12 24.0
e 128 48 79.0
e 128 208 44.0
e 128 313 62.0
e 129 179 2.0
e 135 90 2.0
e 136 272 2.0
e 138 81 2.0
e 138 178 4.0
e 142 247 2.0
e 142 174 26.0
e 142 236 79.0
e 142 260 91.0
e 142 221 70.0
e 142 160 51.0
e 142 270 77.0
e 142 256 62.0
e 142 34 49.0
e 142 274 99.0
e 142 275 71.0
e 142 184 67.0
e 142 265 55.0
e 142 230 50.0
e 142 287 40.0
e 142 251 69.0
e 142 201 78.0
e 142 189 90.0
e 142 187 70.0
e 142 123 35.0
e 142 223 85.0
e 142 269 17.0
e 142 85 40.0
e 142 241 96.0
e 142 235 38.0
e 142 56 74.0
e 148 226 77.0
e 148 109 22.0
e 148 113 100.0
e 148 112 11.0
e 148 163 51.0
e 148 91 81.0
e 148 190 95.0
e 148 10 89.0
e 148 237 2.0
e 148 52 22.0
e 148 302 20.0
e 148 141 91.0
e 148 236 55.0
e 148 111 10.0
e 148 201 44.0
e 148 247 47.0
e 148 235 9.0
e 148 145 84.0
e 148 22 38.0
e 148 279 56.0
e 148 284 78.0
e 148 312 1.0
e 148 193 10.0
e 148 238 68.0
e 149 177 2.0
e 152 159 15.0
e 152 23 10.0
e 152 153 25.0
e 152 122 22.0
e 152 301 83.0
e 152 85 70.0
e 152 79 71.0
e 152 110 57.0
e 152 171 56.0
e 152 18 26.0
e 152 129 39.0
e 152 230 56.0
e 152 11 26.0
e 152 302 76.0
e 152 6 6.0
e 152 263 12.0
e 152 311 29.0
e 152 58 26.0
e 152 222 38.0
e 152 270 91.0
e 152 111 1.0
e 152 162 51.0
e 152 5 35.0
e 152 62 44.0
e 152 315 83.0
e 153 68 38.0
e 153 182 62.0
e 153 131 95.0
e 153 220 35.0
e 153 59 74.0
e 153 187 59.0
e 153 83 90.0
e 153 117 73.0
e 153 60 11.0
e 153 14 13.0
e 153 309 60.0
e 153 316 39.0
e 153 218 45.0
e 153 210 60.0
e 153 2 85.0
e 153 69 99.0
e 153 124 45.0
e 153 36 70.0
e 153 172 74.0
e 153 79 4.0
e 153 44 35.0
e 153 118 28.0
e 154 173 40.0
e 154 292 9.0
e 154 206 92.0
e 154 174 78.0
e 154 316 54.0
e 154 233 93.0
e 154 250 49.0
e 154 140 16.0
e 154 298 50.0
e 154 117 78.0
e 154 221 82.0
e 154 269 95.0
e 154 160 36.0
e 154 170 31.0
e 154 216 74.0
e 154 47 54.0
e 154 38 16.0
e 154 130 42.0
e 154 131 75.0
e 154 48 42.0
e 154 56 10.0
e 154 294 42.0
e 154 187 43.0
e 154 200 25.0
e 157 243 3.0
e 158 86 15.0
e 158 276 1.0
e 159 214 70.0
e 159 210 51.0
e 159 151 7.0
e 159 257 96.0
e 159 121 12.0
e 159 153 64.0
e 159 195 26.0
e 159 205 13.0
e 159 95 99.0
e 159 222 31.0
e 159 74 65.0
e 159 122 21.0
e 159 292 42.0
e 159 240 70.0
e 159 174 58.0
e 159 88 74.0
e 159 124 94.0
e 159 108 79.0
e 159 165 8.0
e 159 221 35.0
e 159 30 18.0
e 159 1 5.0
e 159 109 97.0
e 161 296 3.0
e 161 255 11.0
e 161 176 47.0
e 161 216 91.0
e 161 283 41.0
e 161 31 37.0
e 161 290 38.0
e 161 194 73.0
e 161 74 75.0
e 161 214 43.0
e 161 43 81.0
e 161 209 58.0
e 161 261 40.0
e 161 86 51.0
e 161 54 35.0
e 161 63 19.0
e 161 219 17.0
e 161 301 25.0
e 161 149 17.0
e 161 182 86.0
e 161 201 84.0
e 161 30 22.0
e 161 279 19.0
e 166 46 5.0
e 167 17 6.0
e 167 2 6.0
e 167 137 7.0
e 168 121 12.0
e 168 144 18.0
e 168 67 26.0
e 168 188 37.0
e 168 269 7.0
e 168 211 12.0
e 168 43 34.0
e 168 33 33.0
e 168 100 19.0
e 168 145 17.0
e 168 120 19.0
e 168 32 14.0
e 168 78 36.0
e 171 17 11.0
e 173 227 57.0
e 173 116 63.0
e 173 266 99.0
e 173 60 28.0
e 173 131 40.0
e 173 262 9.0
e 173 74 77.0
e 173 278 50.0
e 173 229 39.0
e 173 312 65.0
e 173 170 64.0
e 173 311 10.0
e 173 223 47.0
e 173 28 31.0
e 173 174 59.0
e 173 214 5.0
e 173 84 84.0
e 173 218 99.0
e 173 168 70.0
e 173 64 41.0
e 173 75 13.0
e 173 224 29.0
e 173 171 100.0
e 173 228 40.0
e 173 284 56.0
e 175 292 11.0
e 175 242 13.0
e 175 271 44.0
e 175 190 41.0
e 175 125 11.0
e 189 50 44.0
e 189 49 5.0
e 189 203 56.0
e 189 66 3.0
e 189 166 82.0
e 189 230 28.0
e 189 169 5.0
e 189 177 53.0
e 189 250 30.0
e 189 206 66.0
e 189 311 97.0
e 189 220 35.0
e 189 51 48.0
e 189 20 56.0
e 189 78 10.0
e 189 134 30.0
e 189 288 92.0
e 189 267 31.0
e 189 107 73.0
e 189 167 38.0
e 189 70 88.0
e 189 115 51.0
e 190 164 51.0
e 190 167 3.0
e 190 304 34.0
e 190 32 29.0
e 190 253 42.0
e 190 124 45.0
e 190 274 6.0
e 190 127 7.0
e 190 141 40.0
e 190 165 44.0
e 190 105 2.0
e 190 286 21.0
e 190 235 1.0
e 190 236 78.0
e 190 50 20.0
e 190 67 61.0
e 190 103 30.0
e 190 74 42.0
e 190 269 25.0
e 190 149 66.0
e 190 63 94.0
e 193 129 25.0
e 193 35 3.0
e 193 14 46.0
e 193 96 47.0
e 193 75 53.0
e 193 8 77.0
e 193 137 10.0
e 193 144 8.0
e 193 174 36.0
e 193 45 87.0
e 193 251 87.0
e 193 122 99.0
e 193 278 69.0
e 193 63 6.0
e 193 311 60.0
e 193 225 68.0
e 193 229 11.0
e 193 87 9.0
e 193 3 57.0
e 193 36 39.0
e 193 135 33.0
e 193 265 6.0
e 193 317 9.0
e 194 187 3.0
e 197 250 23.0
e 197 281 1.0
e 197 130 23.0
e 197 229 4.0
e 197 31 10.0
e 198 98 5.0
e 199 274 11.0
e 199 132 6.0
e 200 182 43.0
e 200 167 82.0
e 200 280 45.0
e 200 169 99.0
e 200 279 88.0
e 200 166 90.0
e 200 285 36.0
e 200 261 21.0
e 200 192 64.0
e 200 35 36.0
e 200 15 79.0
e 200 125 54.0
e 200 298 4.0
e 200 112 63.0
e 200 252 33.0
e 200 16 92.0
e 200 1 41.0
e 200 106 51.0
e 200 304 32.0
e 200 156 89.0
e 200 317 50.0
e 200 272 29.0
e 200 59 23.0
e 200 273 47.0
e 200 136 39.0
e 204 219 1.0
e 204 181 82.0
e 204 59 50.0
e 204 302 68.0
e 204 185 42.0
e 204 228 19.0
e 204 129 67.0
e 204 270 76.0
e 204 21 26.0
e 204 293 55.0
e 204 288 58.0
e 204 131 50.0
e 204 20 6.0
e 204 61 73.0
e 204 54 30.0
e 204 11 53.0
e 204 180 59.0
e 204 167 75.0
e 204 77 92.0
e 204 244 23.0
e 204 240 92.0
e 204 3 10.0
e 204 193 37.0
e 204 171 46.0
e 204 29 77.0
e 204 156 74.0
e 210 292 1.0
e 212 243 1.0
e 212 231 10.0
e 213 117 95.0
e 213 6 61.0
e 213 218 8.0
e 213 97 44.0
e 213 141 87.0
e 213 16 39.0
e 213 75 49.0
e 213 18 10.0
e 213 194 18.0
e 213 289 32.0
e 213 241 74.0
e 213 233 26.0
e 213 253 25.0
e 213 317 19.0
e 213 79 86.0
e 213 224 18.0
e 213 137 93.0
e 213 32 62.0
e 213 7 97.0
e 213 170 59.0
e 213 66 27.0
e 213 278 23.0
e 213 93 83.0
e 213 151 77.0
e 216 123 8.0
e 231 85 8.0
e 231 255 7.0
e 238 114 89.0
e 238 6 10.0
e 238 60 99.0
e 238 244 51.0
e 238 67 100.0
e 238 227 37.0
e 238 252 24.0
e 238 145 96.0
e 238 247 91.0
e 238 31 58.0
e 238 68 78.0
e 238 289 66.0
e 238 95 82.0
e 238 132 19.0
e 238 111 1.0
e 238 83 38.0
e 238 174 49.0
e 238 70 54.0
e 238 293 70.0
e 238 176 33.0
e 238 76 68.0
e 238 213 23.0
e 238 14 90.0
e 239 244 6.0
e 239 208 20.0
e 239 91 14.0
e 239 300 8.0
e 239 107 1.0
e 239 306 13.0
e 245 144 11.0
e 245 171 2.0
e 245 299 2.0
e 245 282 1.0
e 252 249 63.0
e 252 234 96.0
e 252 17 4.0
e 252 157 36.0
e 252 145 90.0
e 252 140 34.0
e 252 290 8.0
e 252 109 3.0
e 252 82 71.0
e 252 46 15.0
e 252 189 4.0
e 252 317 95.0
e 252 286 92.0
e 252 293 81.0
e 252 151 43.0
e 252 126 4.0
e 252 258 32.0
e 252 273 59.0
e 252 263 37.0
e 252 90 26.0
e 252 31 97.0
e 252 113 69.0
e 252 139 83.0
e 254 21 13.0
e 254 135 18.0
e 254 266 17.0
e 254 164 21.0
e 257 158 39.0
e 257 296 93.0
e 257 86 27.0
e 257 181 10.0
e 257 69 49.0
e 257 45 80.0
e 257 144 10.0
e 257 10 66.0
e 257 21 1.0
e 257 14 85.0
e 257 38 93.0
e 257 78 77.0
e 257 149 29.0
e 257 266 26.0
e 257 115 45.0
e 257 271 65.0
e 257 119 34.0
e 257 196 97.0
e 257 43 8.0
e 257 279 53.0
e 257 221 4.0
e 257 146 59.0
e 257 310 25.0
e 257 294 74.0
e 257 249 83.0
e 257 226 79.0
e 268 19 1.0
e 270 93 8.0
e 270 110 25.0
e 270 276 63.0
e 270 100 23.0
e 270 269 88.0
e 270 301 33.0
e 270 208 18.0
e 270 67 74.0
e 270 44 71.0
e 270 11 18.0
e 270 207 60.0
e 270 221 44.0
e 270 251 33.0
e 270 3 80.0
e 270 113 24.0
e 270 248 59.0
e 270 53 49.0
e 270 154 54.0
e 270 281 85.0
e 270 28 81.0
e 270 226 69.0
e 270 114 92.0
e 271 155 18.0
e 271 18 4.0
e 271 16 35.0
e 271 164 99.0
e 271 24 77.0
e 271 295 87.0
e 271 207 64.0
e 271 259 31.0
e 271 115 96.0
e 271 118 37.0
e 271 68 73.0
e 271 303 25.0
e 271 69 53.0
e 271 248 74.0
e 271 267 86.0
e 271 161 81.0
e 271 46 60.0
e 271 10 28.0
e 271 191 93.0
e 271 165 21.0
e 271 134 95.0
e 271 275 68.0
e 271 288 9.0
e 271 260 48.0
e 289 158 11.0
e 289 34 6.0
e 289 237 10.0
e 293 205 16.0
e 293 37 24.0
e 293 154 23.0
e 299 5 1.0
e 299 145 4.0
e 299 89 9.0
e 299 121 9.0
e 299 87 18.0
e 307 297 37.0
e 307 282 69.0
e 307 18 29.0
e 307 139 21.0
e 307 77 68.0
e 307 201 66.0
e 307 161 5.0
e 307 140 20.0
e 307 19 57.0
e 307 1 6.0
e 307 145 43.0
e 307 113 86.0
e 307 59 14.0
e 307 94 22.0
e 307 285 82.0
e 307 187 9.0
e 307 36 88.0
e 307 306 62.0
e 307 185 32.0
e 307 186 44.0
e 307 303 5.0
e 307 23 94.0
e 307 114 63.0
e 307 216 20.0
e 308 156 46.0
e 308 292 60.0
e 308 111 39.0
e 308 216 61.0
e 308 272 35.0
e 308 161 54.0
e 308 270 80.0
e 308 189 23.0
e 308 153 91.0
e 308 230 78.0
e 308 70 47.0
e 308 174 7.0
e 308 208 50.0
e 308 138 54.0
e 308 199 50.0
e 308 118 93.0
e 308 76 98.0
e 308 1 66.0
e 308 57 93.0
e 308 190 60.0
e 308 81 32.0
e 308 237 81.0
e 308 275 60.0
e 308 92 65.0
e 308 37 38.0
e 308 302 97.0
e 308 125 48.0
e 311 296 71.0
e 311 90 77.0
e 311 227 72.0
e 311 273 92.0
e 311 288 57.0
e 311 228 80.0
e 311 45 98.0
e 311 18 59.0
e 311 132 90.0
e 311 140 47.0
e 311 56 62.0
e 311 262 81.0
e 311 29 59.0
e 311 149 52.0
e 311 191 37.0
e 311 91 51.0
e 311 232 84.0
e 311 133 72.0
e 311 134 86.0
e 311 142 32.0
e 312 76 3.0
e 312 80 1.0
e 316 196 10.0
e 316 55 90.0
e 316 151 98.0
e 316 228 40.0
e 316 99 99.0
e 316 135 65.0
e 316 42 23.0
e 316 83 54.0
e 316 147 76.0
e 316 223 3.0
e 316 299 62.0
e 316 193 14.0
e 316 9 70.0
e 316 142 19.0
e 316 303 50.0
e 316 275 52.0
e 316 41 43.0
e 316 313 21.0
e 316 19 67.0
e 316 146 28.0
e 316 314 29.0
e 316 278 7.0
e 316 210 34.0
e 316 234 66.0
e 319 80 1.0
e 319 183 1.0
